Name: EasyAcademy12
Courses: 88
Rooms: 19
Days: 5
Periods_per_day: 6
Curricula: 19
Min_Max_Daily_Lectures: 2 5
UnavailabilityConstraints: 512
RoomConstraints: 146

COURSES:
c1719 t344 2 2 40 0
c1737 t36 2 2 14 0
c1740 t24 2 2 63 0
c1745 t76 2 2 6 0
c1756 t345 2 2 15 0
c1886 t69 2 2 35 0
c1887 t73 2 2 80 0
c1889 t40 2 2 65 0
c1890 t77 2 2 5 0
c1892 t80 2 2 55 0
c1893 t82 2 2 45 0
c1894 t55 2 2 125 0
c1895 t339 2 2 45 0
c1896 t68 2 2 35 0
c1897 t38 2 2 85 0
c1898 t85 2 2 80 0
c1899 t87 2 2 125 0
c1900 t46 2 2 75 0
c1901 t94 2 2 55 0
c1903 t7 2 2 35 0
c1906 t4 2 2 23 0
c1907 t23 2 2 24 0
c1909 t46 2 2 20 0
c1910 t48 2 2 10 0
c1911 t73 2 2 55 0
c1913 t17 2 2 55 0
c1925 t48 2 2 20 0
c1926 t81 2 2 7 0
c1929 t39 2 2 10 0
c1930 t343 2 2 20 0
c1932 t92 2 2 20 0
c1933 t346 2 2 2 0
c1934 no_teacher1 2 2 21 0
c1935 t539 2 2 20 0
c1936 t106 2 2 25 0
c1939 t69 2 2 8 0
c1940 t75 2 2 10 0
c1942 t30 2 2 10 0
c1943 t29 2 2 40 0
c1944 t23 2 2 18 0
c1945 t27 2 2 22 0
c1946 t62 2 2 5 0
c1947 t66 2 2 2 0
c1949 t69 2 2 18 0
c1950 t73 2 2 30 0
c1951 t75 2 2 27 0
c1952 t79 2 2 36 0
c1953 t82 2 2 37 0
c1955 t16 2 2 45 0
c1956 t61 2 2 8 0
c1957 t28 2 2 85 0
c1959 t70 2 2 25 0
c1961 t61 2 2 7 0
c1962 t74 2 2 56 0
c1963 t36 2 2 24 0
c1964 t347 2 2 13 0
c1965 t79 2 2 55 0
c1966 t82 2 2 45 0
c1967 t77 2 2 4 0
c1968 t3 2 2 23 0
c1969 t91 2 2 10 0
c1974 t51 2 2 35 0
c1975 t24 2 2 150 0
c1976 t60 2 2 15 0
c1977 t62 2 2 12 0
c1978 t64 2 2 65 0
c1979 t29 2 2 90 0
c1980 t58 2 2 55 0
c1982 t66 2 2 10 0
c1984 t70 2 2 40 0
c1985 t71 2 2 120 0
c1986 t60 2 2 5 0
c1987 t61 2 2 5 0
c1988 t27 2 2 70 0
c1989 t76 2 2 7 0
c1990 t63 2 2 4 0
c1991 t79 2 2 75 0
c1992 t83 2 2 2 0
c1993 t340 2 2 100 0
c1998 t80 2 2 42 0
c2000 t85 2 2 55 0
c2001 t51 2 2 45 0
c2006 t342 2 2 80 0
c2008 t68 2 2 30 0
c3002 t341 2 2 80 0
c3643 no_teacher2 2 2 25 0
c9106 t51 1 1 20 0
c9107 t51 1 1 20 0

ROOMS:
r21 42 0
r22 25 0
r23 53 0
r24 175 0
r25 86 0
r26 46 0
r217 15 0
r222 30 3
r263 60 6
r32 22 4
r33 10 4
r34 16 4
r35 14 4
r31 45 2
r218 25 5
r36 25 5
r27 25 1
r38 265 7
r37 100 7

CURRICULA:
cu378 1 c1756
cu417 8 c1719 c1894 c1895 c1896 c1897 c1898 c1899 c1900
cu418 8 c1889 c1898 c1901 c1890 c1961 c1964 c1976 c1982
cu419 11 c1886 c1887 c1889 c1892 c1893 c1756 c1890 c1961 c1964 c1976 c1982
cu472A 11 c1979 c1980 c1982 c1984 c1985 c1988 c1991 c1993 c1977 c1986 c1987
cu472B 12 c1978 c1979 c1980 c1984 c1985 c1988 c1991 c1993 c1989 c1990 c1992 c9107
cu472C 12 c1975 c1979 c1980 c1984 c1985 c1977 c1986 c1987 c1989 c1990 c1992 c9107
cu472D 11 c1975 c1988 c1993 c1974 c1977 c1986 c1987 c1989 c1990 c1992 c9107
cu473A 12 c1980 c1988 c1991 c1993 c2006 c2008 c3002 c1986 c1987 c1989 c1990 c2001
cu473B 12 c1980 c1988 c1991 c1993 c2006 c2008 c3002 c1986 c1987 c1989 c1990 c9106
cu530A 12 c1957 c1959 c1962 c1965 c1966 c1968 c1756 c1955 c1961 c1963 c1964 c1967 
cu530B 11 c1957 c1959 c1962 c1965 c1966 c1968 c1756 c1955 c1956 c1969 c1977
cu530C 11 c1957 c1959 c1962 c1965 c1966 c1961 c1963 c1964 c1967 c1969 c1982
cu530D 9 c1957 c1968 c1756 c1955 c1956 c1963 c1967 c1969 c1977 
cu531 10 c1936 c1957 c1962 c1979 c1998 c2000 c1756 c1956 c1967 c1982
cu547 11 c1740 c1944 c1945 c1949 c1950 c1951 c1952 c1953 c1745 c1946 c1947
cu548 9 c1939 c1940 c1950 c1952 c1953 c1737 c1745 c1942 c1943
cu549 9 c1913 c1925 c1930 c1935 c1951 c3643 c1756 c1926 c1933
cu550 15 c1740 c1907 c1910 c1911 c1929 c1932 c1934 c1945 c1903 c1906 c1909 c1926 c1943 c1946 c1976

UNAVAILABILITY_CONSTRAINTS:
c1740 0 5
c1740 1 0
c1740 1 1
c1740 2 0
c1740 2 1
c1740 3 0
c1740 3 1
c1740 3 2
c1740 4 0
c1740 4 1
c1740 4 2
c1886 0 5
c1886 1 0
c1886 1 5
c1886 2 0
c1886 2 1
c1886 2 2
c1886 2 5
c1886 3 0
c1886 4 0
c1886 4 1
c1886 4 2
c1887 0 3
c1887 0 4
c1887 0 5
c1887 1 0
c1887 1 1
c1887 1 2
c1887 1 3
c1887 2 0
c1887 4 0
c1887 4 1
c1887 4 2
c1889 0 3
c1889 0 4
c1889 1 0
c1889 1 1
c1889 3 0
c1889 3 1
c1889 4 0
c1889 4 1
c1889 4 2
c1890 0 3
c1890 0 4
c1890 0 5
c1890 1 2
c1890 1 3
c1890 1 4
c1890 1 5
c1890 2 2
c1890 2 3
c1890 2 4
c1890 2 5
c1892 0 3
c1892 0 4
c1892 0 5
c1892 1 0
c1892 1 1
c1892 1 2
c1892 4 0
c1892 4 1
c1892 4 2
c1893 0 3
c1893 0 4
c1893 0 5
c1893 1 4
c1893 1 5
c1893 2 5
c1893 3 2
c1893 4 0
c1893 4 1
c1893 4 2
c1896 0 5
c1896 1 0
c1896 1 5
c1896 2 0
c1896 2 5
c1896 3 0
c1896 4 0
c1897 0 4
c1897 0 5
c1897 1 0
c1897 1 4
c1897 1 5
c1897 2 0
c1897 2 4
c1897 2 5
c1897 3 0
c1897 4 0
c1898 0 4
c1898 0 5
c1898 1 0
c1898 1 1
c1898 1 2
c1898 1 3
c1898 1 4
c1898 1 5
c1898 2 3
c1898 2 4
c1898 2 5
c1900 0 3
c1900 0 4
c1900 1 0
c1900 1 3
c1900 2 0
c1900 3 0
c1900 3 1
c1900 3 2
c1900 4 0
c1900 4 1
c1900 4 2
c1901 3 0
c1901 3 1
c1901 3 2
c1901 4 0
c1901 4 1
c1901 4 2
c1903 3 0
c1903 3 1
c1903 3 2
c1903 4 0
c1903 4 1
c1903 4 2
c1906 1 3
c1906 1 4
c1906 2 2
c1906 2 3
c1906 3 0
c1906 3 1
c1906 3 2
c1906 4 0
c1906 4 1
c1906 4 2
c1907 1 0
c1907 2 0
c1907 3 0
c1907 4 0
c1909 0 3
c1909 0 4
c1909 1 0
c1909 1 3
c1909 2 0
c1909 3 0
c1909 3 1
c1909 3 2
c1909 4 0
c1909 4 1
c1909 4 2
c1910 1 0
c1910 1 1
c1910 2 0
c1910 2 1
c1910 2 2
c1910 3 0
c1910 3 1
c1910 3 2
c1910 4 0
c1910 4 1
c1910 4 2
c1911 0 3
c1911 0 4
c1911 0 5
c1911 1 0
c1911 1 1
c1911 1 2
c1911 1 3
c1911 2 0
c1911 4 0
c1911 4 1
c1911 4 2
c1913 0 4
c1913 0 5
c1913 1 5
c1913 2 5
c1925 1 0
c1925 1 1
c1925 2 0
c1925 2 1
c1925 2 2
c1925 3 0
c1925 3 1
c1925 3 2
c1925 4 0
c1925 4 1
c1925 4 2
c1926 0 4
c1926 0 5
c1926 1 0
c1926 1 1
c1926 1 2
c1926 1 5
c1926 2 0
c1926 3 0
c1926 4 0
c1926 4 1
c1926 4 2
c1936 1 0
c1936 1 1
c1936 1 2
c1936 2 0
c1936 2 1
c1936 2 2
c1936 3 0
c1936 3 1
c1936 3 2
c1936 4 0
c1936 4 1
c1939 0 5
c1939 1 0
c1939 1 5
c1939 2 0
c1939 2 1
c1939 2 2
c1939 2 5
c1939 3 0
c1939 4 0
c1939 4 1
c1939 4 2
c1940 1 0
c1940 2 0
c1940 3 0
c1943 0 3
c1943 0 4
c1943 1 0
c1943 1 1
c1943 1 2
c1943 3 0
c1943 3 1
c1943 3 2
c1943 4 0
c1943 4 1
c1943 4 2
c1944 1 0
c1944 2 0
c1944 3 0
c1944 4 0
c1945 0 3
c1945 0 4
c1945 0 5
c1945 1 4
c1945 1 5
c1945 2 4
c1945 2 5
c1947 0 3
c1947 0 4
c1947 0 5
c1947 2 4
c1947 2 5
c1947 3 0
c1947 3 1
c1947 3 2
c1947 4 0
c1947 4 1
c1947 4 2
c1949 0 5
c1949 1 0
c1949 1 5
c1949 2 0
c1949 2 1
c1949 2 2
c1949 2 5
c1949 3 0
c1949 4 0
c1949 4 1
c1949 4 2
c1950 0 3
c1950 0 4
c1950 0 5
c1950 1 0
c1950 1 1
c1950 1 2
c1950 1 3
c1950 2 0
c1950 4 0
c1950 4 1
c1950 4 2
c1951 1 0
c1951 2 0
c1951 3 0
c1953 0 3
c1953 0 4
c1953 0 5
c1953 1 4
c1953 1 5
c1953 2 5
c1953 3 2
c1953 4 0
c1953 4 1
c1953 4 2
c1956 0 3
c1956 0 4
c1956 0 5
c1956 1 0
c1956 1 1
c1956 1 2
c1956 1 3
c1956 3 2
c1956 4 0
c1956 4 1
c1956 4 2
c1957 0 3
c1957 0 4
c1957 0 5
c1957 1 0
c1957 1 1
c1957 1 2
c1957 4 0
c1957 4 1
c1961 0 3
c1961 0 4
c1961 0 5
c1961 1 0
c1961 1 1
c1961 1 2
c1961 1 3
c1961 3 2
c1961 4 0
c1961 4 1
c1961 4 2
c1962 0 3
c1962 0 4
c1962 0 5
c1962 1 5
c1962 2 5
c1966 0 3
c1966 0 4
c1966 0 5
c1966 1 4
c1966 1 5
c1966 2 5
c1966 3 2
c1966 4 0
c1966 4 1
c1966 4 2
c1967 0 3
c1967 0 4
c1967 0 5
c1967 1 2
c1967 1 3
c1967 1 4
c1967 1 5
c1967 2 2
c1967 2 3
c1967 2 4
c1967 2 5
c1969 2 3
c1969 2 4
c1969 2 5
c1969 3 0
c1969 3 1
c1969 3 2
c1969 4 0
c1969 4 1
c1969 4 2
c1974 0 5
c1974 1 5
c1974 2 5
c1975 0 5
c1975 1 0
c1975 1 1
c1975 2 0
c1975 2 1
c1975 3 0
c1975 3 1
c1975 3 2
c1975 4 0
c1975 4 1
c1975 4 2
c1976 0 3
c1976 0 4
c1976 0 5
c1976 4 0
c1976 4 1
c1976 4 2
c1978 0 3
c1978 0 4
c1978 0 5
c1978 1 2
c1978 1 3
c1978 1 4
c1978 1 5
c1978 2 2
c1978 2 3
c1978 2 4
c1978 2 5
c1979 0 3
c1979 0 4
c1979 1 0
c1979 1 1
c1979 1 2
c1979 3 0
c1979 3 1
c1979 3 2
c1979 4 0
c1979 4 1
c1979 4 2
c1980 1 0
c1980 1 1
c1980 1 2
c1980 2 0
c1980 2 1
c1980 2 2
c1980 3 0
c1980 3 1
c1980 3 2
c1980 4 0
c1980 4 1
c1982 0 3
c1982 0 4
c1982 0 5
c1982 2 4
c1982 2 5
c1982 3 0
c1982 3 1
c1982 3 2
c1982 4 0
c1982 4 1
c1982 4 2
c1985 0 5
c1985 1 0
c1985 1 1
c1985 1 2
c1985 1 5
c1985 2 1
c1985 2 2
c1985 2 5
c1985 4 0
c1985 4 1
c1986 0 3
c1986 0 4
c1986 0 5
c1986 4 0
c1986 4 1
c1986 4 2
c1987 0 3
c1987 0 4
c1987 0 5
c1987 1 0
c1987 1 1
c1987 1 2
c1987 1 3
c1987 3 2
c1987 4 0
c1987 4 1
c1987 4 2
c1988 0 3
c1988 0 4
c1988 0 5
c1988 1 4
c1988 1 5
c1988 2 4
c1988 2 5
c1990 1 0
c1990 2 0
c1990 3 0
c1990 4 0
c1990 4 1
c1990 4 2
c1992 0 5
c1992 1 0
c1992 1 5
c1992 2 0
c1992 2 5
c1992 3 0
c1992 4 0
c1993 1 0
c1993 1 1
c1993 1 2
c1993 1 3
c1993 2 0
c1993 2 1
c1993 2 2
c1993 2 3
c1993 2 4
c1993 3 0
c1993 3 1
c1998 0 3
c1998 0 4
c1998 0 5
c1998 1 0
c1998 1 1
c1998 1 2
c1998 4 0
c1998 4 1
c1998 4 2
c2000 0 4
c2000 0 5
c2000 1 0
c2000 1 1
c2000 1 2
c2000 1 3
c2000 1 4
c2000 1 5
c2000 2 3
c2000 2 4
c2000 2 5
c2001 0 5
c2001 1 5
c2001 2 5
c2008 0 5
c2008 1 0
c2008 1 5
c2008 2 0
c2008 2 5
c2008 3 0
c2008 4 0
c9106 0 5
c9106 1 5
c9106 2 5
c9107 0 5
c9107 1 5
c9107 2 5

ROOM_CONSTRAINTS:
c1740 r24
c1886 r22
c1886 r31
c1886 r27
c1886 r38
c1886 r37
c1889 r32
c1889 r33
c1889 r34
c1889 r35
c1893 r21
c1893 r22
c1893 r36
c1893 r38
c1893 r37
c1894 r36
c1895 r217
c1895 r32
c1895 r33
c1895 r34
c1895 r35
c1895 r218
c1895 r37
c1896 r32
c1896 r34
c1896 r35
c1896 r27
c1897 r21
c1897 r22
c1897 r23
c1897 r32
c1897 r33
c1897 r34
c1897 r35
c1897 r31
c1898 r32
c1898 r33
c1898 r34
c1898 r35
c1898 r36
c1898 r27
c1898 r38
c1898 r37
c1901 r31
c1903 r22
c1903 r32
c1903 r33
c1903 r34
c1903 r35
c1903 r31
c1903 r27
c1906 r22
c1906 r32
c1906 r33
c1906 r34
c1906 r35
c1906 r36
c1906 r27
c1943 r32
c1943 r33
c1943 r34
c1943 r35
c1943 r31
c1943 r27
c1943 r38
c1943 r37
c1951 r22
c1951 r24
c1951 r33
c1951 r34
c1951 r35
c1951 r27
c1951 r38
c1951 r37
c1953 r21
c1953 r22
c1953 r31
c1953 r38
c1953 r37
c1956 r31
c1956 r27
c1956 r38
c1956 r37
c1961 r31
c1961 r27
c1961 r38
c1961 r37
c1966 r21
c1966 r22
c1966 r31
c1966 r38
c1966 r37
c1969 r31
c1969 r27
c1974 r27
c1974 r38
c1974 r37
c1978 r31
c1978 r27
c1978 r38
c1978 r37
c1979 r32
c1979 r33
c1979 r34
c1979 r35
c1979 r31
c1979 r27
c1980 r22
c1980 r217
c1980 r32
c1980 r33
c1980 r34
c1980 r35
c1980 r218
c1980 r36
c1980 r27
c1987 r31
c1987 r27
c1987 r38
c1987 r37
c1988 r21
c1988 r22
c1988 r23
c1988 r32
c1988 r33
c1988 r34
c1988 r35
c1988 r31
c1988 r36
c1988 r27
c1993 r21
c1993 r22
c1993 r23
c1993 r217
c1993 r33
c1993 r34
c1993 r35
c1993 r31
c2001 r27
c2001 r38
c2001 r37
c2008 r21
c2008 r22
c2008 r26
c2008 r31
c2008 r27

END.
